p tdp 61 119
3 52
27 29
13 40
8 51
25 54
16 30
1 14
27 50
9 54
20 55
43 50
5 38
26 37
34 59
19 53
13 46
2 36
6 38
57 58
10 37
22 25
6 7
32 57
47 59
39 42
20 41
23 24
12 14
17 61
15 31
13 23
3 35
20 54
19 45
2 33
36 52
29 56
20 46
21 58
24 60
10 21
16 34
4 61
49 61
14 21
32 44
34 58
11 39
15 34
11 48
28 61
14 49
8 38
2 51
45 56
13 26
11 18
8 17
29 48
48 49
9 16
26 29
49 53
2 12
8 50
50 58
16 25
16 47
3 38
41 46
4 27
30 48
22 28
12 16
41 42
34 57
39 46
40 59
22 54
6 25
43 60
15 60
14 38
21 27
7 55
6 33
27 38
9 55
2 19
30 57
28 50
30 38
53 54
2 13
36 40
13 36
17 47
33 40
30 52
29 40
22 45
52 54
11 26
17 38
36 41
42 57
24 29
30 44
1 37
3 46
24 45
31 60
24 61
48 55
26 42
10 52
17 34
8 49
14 57
